Minimize
 obj: + 127 x_user1_load0_hour0 + 143 x_user1_load0_hour1 
 + 148 x_user1_load0_hour2 + 168 x_user1_load0_hour3 + 175 x_user1_load0_hour4 
 + 187 x_user1_load0_hour5 + 194 x_user1_load0_hour6 + 206 x_user1_load0_hour7 
 + 152 x_user1_load1_hour0 + 168 x_user1_load1_hour1 + 180 x_user1_load1_hour2 
 + 201 x_user1_load1_hour3 + 208 x_user1_load1_hour4 + 218 x_user1_load1_hour5 
 + 232 x_user1_load1_hour6 + 247 x_user1_load1_hour7 + 149 x_user1_load2_hour0 
 + 169 x_user1_load2_hour1 + 176 x_user1_load2_hour2 + 199 x_user1_load2_hour3 
 + 205 x_user1_load2_hour4 + 219 x_user1_load2_hour5 + 230 x_user1_load2_hour6 
 + 243 x_user1_load2_hour7 + 105 x_user1_load3_hour0 + 117 x_user1_load3_hour1 
 + 120 x_user1_load3_hour2 + 137 x_user1_load3_hour3 + 145 x_user1_load3_hour4 
 + 155 x_user1_load3_hour5 + 158 x_user1_load3_hour6 + 169 x_user1_load3_hour7 
 + 88 x_user1_load4_hour0 + 93 x_user1_load4_hour1 + 102 x_user1_load4_hour2 
 + 113 x_user1_load4_hour3 + 120 x_user1_load4_hour4 + 123 x_user1_load4_hour5 
 + 130 x_user1_load4_hour6 + 141 x_user1_load4_hour7 

Subject To 
 load_load0_scheduled: + 1 x_user1_load0_hour0 + 1 x_user1_load0_hour1 
 + 1 x_user1_load0_hour2 + 1 x_user1_load0_hour3 + 1 x_user1_load0_hour4 
 + 1 x_user1_load0_hour5 + 1 x_user1_load0_hour6 + 1 x_user1_load0_hour7  = 1.0
 load_load1_scheduled: + 1 x_user1_load1_hour0 + 1 x_user1_load1_hour1 
 + 1 x_user1_load1_hour2 + 1 x_user1_load1_hour3 + 1 x_user1_load1_hour4 
 + 1 x_user1_load1_hour5 + 1 x_user1_load1_hour6 + 1 x_user1_load1_hour7  = 1.0
 load_load2_scheduled: + 1 x_user1_load2_hour0 + 1 x_user1_load2_hour1 
 + 1 x_user1_load2_hour2 + 1 x_user1_load2_hour3 + 1 x_user1_load2_hour4 
 + 1 x_user1_load2_hour5 + 1 x_user1_load2_hour6 + 1 x_user1_load2_hour7  = 1.0
 load_load3_scheduled: + 1 x_user1_load3_hour0 + 1 x_user1_load3_hour1 
 + 1 x_user1_load3_hour2 + 1 x_user1_load3_hour3 + 1 x_user1_load3_hour4 
 + 1 x_user1_load3_hour5 + 1 x_user1_load3_hour6 + 1 x_user1_load3_hour7  = 1.0
 load_load4_scheduled: + 1 x_user1_load4_hour0 + 1 x_user1_load4_hour1 
 + 1 x_user1_load4_hour2 + 1 x_user1_load4_hour3 + 1 x_user1_load4_hour4 
 + 1 x_user1_load4_hour5 + 1 x_user1_load4_hour6 + 1 x_user1_load4_hour7  = 1.0
 MaxLoadConnection_user1_0: + 3 x_user1_load0_hour0 + 2 x_user1_load1_hour0 
 + 3 x_user1_load2_hour0 + 3 x_user1_load3_hour0 + 1 x_user1_load4_hour0 
  <= 4.0
 MaxLoadConnection_user1_1: + 3 x_user1_load0_hour1 + 1 x_user1_load0_hour0 
 + 2 x_user1_load1_hour1 + 2 x_user1_load1_hour0 + 3 x_user1_load2_hour1 
 + 1 x_user1_load2_hour0 + 3 x_user1_load3_hour1 + 1 x_user1_load3_hour0 
 + 1 x_user1_load4_hour1 + 2 x_user1_load4_hour0  <= 4.0
 MaxLoadConnection_user1_2: + 3 x_user1_load0_hour2 + 1 x_user1_load0_hour1 
 + 2 x_user1_load0_hour0 + 2 x_user1_load1_hour2 + 2 x_user1_load1_hour1 
 + 3 x_user1_load1_hour0 + 3 x_user1_load2_hour2 + 1 x_user1_load2_hour1 
 + 3 x_user1_load2_hour0 + 3 x_user1_load3_hour2 + 1 x_user1_load3_hour1 
 + 1 x_user1_load3_hour0 + 1 x_user1_load4_hour2 + 2 x_user1_load4_hour1 
 + 1 x_user1_load4_hour0  <= 4.0
 MaxLoadConnection_user1_3: + 3 x_user1_load0_hour3 + 1 x_user1_load0_hour2 
 + 2 x_user1_load0_hour1 + 2 x_user1_load1_hour3 + 2 x_user1_load1_hour2 
 + 3 x_user1_load1_hour1 + 3 x_user1_load2_hour3 + 1 x_user1_load2_hour2 
 + 3 x_user1_load2_hour1 + 3 x_user1_load3_hour3 + 1 x_user1_load3_hour2 
 + 1 x_user1_load3_hour1 + 1 x_user1_load4_hour3 + 2 x_user1_load4_hour2 
 + 1 x_user1_load4_hour1  <= 4.0
 MaxLoadConnection_user1_4: + 3 x_user1_load0_hour4 + 1 x_user1_load0_hour3 
 + 2 x_user1_load0_hour2 + 2 x_user1_load1_hour4 + 2 x_user1_load1_hour3 
 + 3 x_user1_load1_hour2 + 3 x_user1_load2_hour4 + 1 x_user1_load2_hour3 
 + 3 x_user1_load2_hour2 + 3 x_user1_load3_hour4 + 1 x_user1_load3_hour3 
 + 1 x_user1_load3_hour2 + 1 x_user1_load4_hour4 + 2 x_user1_load4_hour3 
 + 1 x_user1_load4_hour2  <= 4.0
 MaxLoadConnection_user1_5: + 3 x_user1_load0_hour5 + 1 x_user1_load0_hour4 
 + 2 x_user1_load0_hour3 + 2 x_user1_load1_hour5 + 2 x_user1_load1_hour4 
 + 3 x_user1_load1_hour3 + 3 x_user1_load2_hour5 + 1 x_user1_load2_hour4 
 + 3 x_user1_load2_hour3 + 3 x_user1_load3_hour5 + 1 x_user1_load3_hour4 
 + 1 x_user1_load3_hour3 + 1 x_user1_load4_hour5 + 2 x_user1_load4_hour4 
 + 1 x_user1_load4_hour3  <= 4.0
 MaxLoadConnection_user1_6: + 3 x_user1_load0_hour6 + 1 x_user1_load0_hour5 
 + 2 x_user1_load0_hour4 + 2 x_user1_load1_hour6 + 2 x_user1_load1_hour5 
 + 3 x_user1_load1_hour4 + 3 x_user1_load2_hour6 + 1 x_user1_load2_hour5 
 + 3 x_user1_load2_hour4 + 3 x_user1_load3_hour6 + 1 x_user1_load3_hour5 
 + 1 x_user1_load3_hour4 + 1 x_user1_load4_hour6 + 2 x_user1_load4_hour5 
 + 1 x_user1_load4_hour4  <= 4.0
 MaxLoadConnection_user1_7: + 3 x_user1_load0_hour7 + 1 x_user1_load0_hour6 
 + 2 x_user1_load0_hour5 + 2 x_user1_load1_hour7 + 2 x_user1_load1_hour6 
 + 3 x_user1_load1_hour5 + 3 x_user1_load2_hour7 + 1 x_user1_load2_hour6 
 + 3 x_user1_load2_hour5 + 3 x_user1_load3_hour7 + 1 x_user1_load3_hour6 
 + 1 x_user1_load3_hour5 + 1 x_user1_load4_hour7 + 2 x_user1_load4_hour6 
 + 1 x_user1_load4_hour5  <= 4.0
 MaxLoadConnection_user1_8: + 1 x_user1_load0_hour7 + 2 x_user1_load0_hour6 
 + 2 x_user1_load1_hour7 + 3 x_user1_load1_hour6 + 1 x_user1_load2_hour7 
 + 3 x_user1_load2_hour6 + 1 x_user1_load3_hour7 + 1 x_user1_load3_hour6 
 + 2 x_user1_load4_hour7 + 1 x_user1_load4_hour6  <= 4.0
 MaxLoadConnection_user1_9: + 2 x_user1_load0_hour7 + 3 x_user1_load1_hour7 
 + 3 x_user1_load2_hour7 + 1 x_user1_load3_hour7 + 1 x_user1_load4_hour7 
  <= 4.0

Bounds

Binary
 x_user1_load0_hour0 x_user1_load0_hour1 x_user1_load0_hour2
  x_user1_load0_hour3 x_user1_load0_hour4 x_user1_load0_hour5
  x_user1_load0_hour6 x_user1_load0_hour7 x_user1_load1_hour0
  x_user1_load1_hour1 x_user1_load1_hour2 x_user1_load1_hour3
  x_user1_load1_hour4 x_user1_load1_hour5 x_user1_load1_hour6
  x_user1_load1_hour7 x_user1_load2_hour0 x_user1_load2_hour1
  x_user1_load2_hour2 x_user1_load2_hour3 x_user1_load2_hour4
  x_user1_load2_hour5 x_user1_load2_hour6 x_user1_load2_hour7
  x_user1_load3_hour0 x_user1_load3_hour1 x_user1_load3_hour2
  x_user1_load3_hour3 x_user1_load3_hour4 x_user1_load3_hour5
  x_user1_load3_hour6 x_user1_load3_hour7 x_user1_load4_hour0
  x_user1_load4_hour1 x_user1_load4_hour2 x_user1_load4_hour3
  x_user1_load4_hour4 x_user1_load4_hour5 x_user1_load4_hour6
  x_user1_load4_hour7
General

End